anatasa(101)2x2 Ti24O48                 
   1.00000000000000     
    10.8858003615999994    0.0000000000000000    0.0000000000000000
    -2.6195884084999999    7.0831099706999998    0.0000000000000000
     0.0000000000000000    0.0000000000000000   25.6399002074999984
   Ti   O    As   H 
    24    52     1     3
Selective dynamics
Direct
  0.4528848829978926  0.2264399379982365  0.0000000000000000   F   F   F
  0.4528848830006567  0.7264397739954163  0.0000000000000000   F   F   F
  0.9528847929999174  0.2264399379982365  0.0000000000000000   F   F   F
  0.9528847930026814  0.7264397739954163  0.0000000000000000   F   F   F
  0.0896649730030603  0.2948298750038489  0.1368299420008583   F   F   F
  0.0896649729944912  0.7948297259944468  0.1368299420008583   F   F   F
  0.5896647569968962  0.2948298750038489  0.1368299420008583   F   F   F
  0.5896647569975073  0.7948297259944468  0.1368299420008583   F   F   F
  0.2317754859103676  0.3658205433392886  0.2781126142998675   T   T   T
  0.2309202812854609  0.8659525621720812  0.2807257373663599   T   T   T
  0.7333771966586149  0.3687489140091568  0.2806908021603703   T   T   T
  0.7307271343829511  0.8659688150173193  0.2799547423663026   T   T   T
  0.2370799330039972  0.3685398700003546  0.0342099849999968   F   F   F
  0.2370799329979150  0.8685397510060184  0.0342099849999968   F   F   F
  0.7370797400002758  0.3685398700003546  0.0342099849999968   F   F   F
  0.7370797400033808  0.8685397510060184  0.0342099849999968   F   F   F
  0.3738598819958199  0.4369298820012730  0.1710399390016804   F   F   F
  0.3738598819965517  0.9369297620045458  0.1710399390016804   F   F   F
  0.8738597629967586  0.4369298820012730  0.1710399390016804   F   F   F
  0.8738597629974905  0.9369297620045458  0.1710399390016804   F   F   F
  0.0030448589467626  0.0021400915450823  0.3156857505003317   T   T   T
  0.0060440612583031  0.5032027691398987  0.3167689129099615   T   T   T
  0.5078864091262473  0.0065067594917257  0.3137378130479352   T   T   T
  0.5099579010509988  0.5050424772299017  0.3228455953705574   T   T   T
  0.2733348910015110  0.1366649419964219  0.0284599920005348   F   F   F
  0.2733348909993936  0.6366647480067797  0.0284599920005348   F   F   F
  0.7733347420000669  0.1366649419964219  0.0284599920005348   F   F   F
  0.7733347419979495  0.6366647480067797  0.0284599920005348   F   F   F
  0.4101148839977640  0.2050549390039293  0.1652899379990700   F   F   F
  0.4101148839992845  0.7050547599935797  0.1652899379990700   F   F   F
  0.9101147649987027  0.2050549390039293  0.1652899379990700   F   F   F
  0.9101147650002233  0.7050547599935797  0.1652899379990700   F   F   F
  0.0579824462725299  0.2786599166855153  0.3239383216540224   T   T   T
  0.0605191869224346  0.7814413763409357  0.3263869925626925   T   T   T
  0.5588883286071665  0.2766543511429382  0.3237431454079474   T   T   T
  0.5540704221856546  0.7825124672672592  0.3196582333551780   T   T   T
  0.0575299860020095  0.2787648739985400  0.0626699699997246   F   F   F
  0.0575299859968368  0.7787647250032563  0.0626699699997246   F   F   F
  0.5575297470025902  0.2787648739985400  0.0626699699997246   F   F   F
  0.5575297469974174  0.7787647250032563  0.0626699699997246   F   F   F
  0.1943099350030195  0.3471548859994584  0.1994999349998920   F   F   F
  0.1943099349978468  0.8471547370041748  0.1994999349998920   F   F   F
  0.6943097710003769  0.3471548859994584  0.1994999349998920   F   F   F
  0.6943097710043915  0.8471547370041748  0.1994999349998920   F   F   F
  0.3266298051948487  0.4074451664122304  0.3455512368430167   T   T   T
  0.3393446929821492  0.9145800769053295  0.3457687850518830   T   T   T
  0.8386375929121622  0.4173525852459301  0.3451004694991657   T   T   T
  0.8359306766440829  0.9225844213431188  0.3444231887738998   T   T   T
  0.0534049870019544  0.0267049930020065  0.1425799429995678   F   F   F
  0.0534049869955027  0.5267047880002522  0.1425799429995678   F   F   F
  0.5534047480025350  0.0267049930020065  0.1425799429995678   F   F   F
  0.5534047479960833  0.5267047880002522  0.1425799429995678   F   F   F
  0.1868793003922207  0.0929635595927596  0.2818089073992504   T   T   T
  0.1887931651381803  0.5951707338374700  0.2820493674638739   T   T   T
  0.6895082212710121  0.0966789110856271  0.2797367981782237   T   T   T
  0.6880937362497210  0.5948733607716432  0.2848010922747705   T   T   T
  0.4166298809971991  0.4583148960031167  0.0057499979994802   F   F   F
  0.4166298809979310  0.9583147760063895  0.0057499979994802   F   F   F
  0.9166297909992238  0.4583148960031167  0.0057499979994802   F   F   F
  0.9166297909999557  0.9583147760063895  0.0057499979994802   F   F   F
  0.2692148690028304  0.3846048710056635  0.1083699689980548   F   F   F
  0.2692148690025320  0.8846047519972018  0.1083699689980548   F   F   F
  0.7692147490024652  0.3846048710056635  0.1083699689980548   F   F   F
  0.7692147490021739  0.8846047519972018  0.1083699689980548   F   F   F
  0.4137812440547898  0.4553805929287233  0.2514756296433857   T   T   T
  0.4121432233429085  0.9619378388966663  0.2490031102288821   T   T   T
  0.9154010469896369  0.4621799090459873  0.2495379330098677   T   T   T
  0.9137391287167012  0.9533243541609716  0.2489996365613313   T   T   T
  0.6324300000018965  0.8162100000021084  0.9715400000002106   F   F   F
  0.6324299999956011  0.3162099999950527  0.9715400000002106   F   F   F
  0.1324300000018965  0.8162100000021084  0.9715400000002106   F   F   F
  0.1324299999956011  0.3162099999950527  0.9715400000002106   F   F   F
  0.2603562532505059  0.2380846804417139  0.4348915398330093   T   T   T
  0.2736849238660187  0.6329901876002633  0.4163212334740991   T   T   T
  0.3869860678570468  0.5260054228000680  0.4920527275938361   T   T   T
  0.5197497625382744  0.5311606267670580  0.4024269473380024   T   T   T
  0.3599736543621139  0.4775861104744957  0.4244480376406176   T   T   T
  0.2512246582903046  0.1731803375034506  0.4011633881246466   F   T   T
  0.3065860682648874  0.7267200542997014  0.3869018088865850   T   T   T
  0.4047835045264874  0.4204861575954202  0.5083708639829879   T   T   T
 
  0.00000000E+00  0.00000000E+00  0.00000000E+00
  0.00000000E+00  0.00000000E+00  0.00000000E+00
  0.00000000E+00  0.00000000E+00  0.00000000E+00
  0.00000000E+00  0.00000000E+00  0.00000000E+00
  0.00000000E+00  0.00000000E+00  0.00000000E+00
  0.00000000E+00  0.00000000E+00  0.00000000E+00
  0.00000000E+00  0.00000000E+00  0.00000000E+00
  0.00000000E+00  0.00000000E+00  0.00000000E+00
  0.00000000E+00  0.00000000E+00  0.00000000E+00
  0.00000000E+00  0.00000000E+00  0.00000000E+00
  0.00000000E+00  0.00000000E+00  0.00000000E+00
  0.00000000E+00  0.00000000E+00  0.00000000E+00
  0.00000000E+00  0.00000000E+00  0.00000000E+00
  0.00000000E+00  0.00000000E+00  0.00000000E+00
  0.00000000E+00  0.00000000E+00  0.00000000E+00
  0.00000000E+00  0.00000000E+00  0.00000000E+00
  0.00000000E+00  0.00000000E+00  0.00000000E+00
  0.00000000E+00  0.00000000E+00  0.00000000E+00
  0.00000000E+00  0.00000000E+00  0.00000000E+00
  0.00000000E+00  0.00000000E+00  0.00000000E+00
  0.00000000E+00  0.00000000E+00  0.00000000E+00
  0.00000000E+00  0.00000000E+00  0.00000000E+00
  0.00000000E+00  0.00000000E+00  0.00000000E+00
  0.00000000E+00  0.00000000E+00  0.00000000E+00
  0.00000000E+00  0.00000000E+00  0.00000000E+00
  0.00000000E+00  0.00000000E+00  0.00000000E+00
  0.00000000E+00  0.00000000E+00  0.00000000E+00
  0.00000000E+00  0.00000000E+00  0.00000000E+00
  0.00000000E+00  0.00000000E+00  0.00000000E+00
  0.00000000E+00  0.00000000E+00  0.00000000E+00
  0.00000000E+00  0.00000000E+00  0.00000000E+00
  0.00000000E+00  0.00000000E+00  0.00000000E+00
  0.00000000E+00  0.00000000E+00  0.00000000E+00
  0.00000000E+00  0.00000000E+00  0.00000000E+00
  0.00000000E+00  0.00000000E+00  0.00000000E+00
  0.00000000E+00  0.00000000E+00  0.00000000E+00
  0.00000000E+00  0.00000000E+00  0.00000000E+00
  0.00000000E+00  0.00000000E+00  0.00000000E+00
  0.00000000E+00  0.00000000E+00  0.00000000E+00
  0.00000000E+00  0.00000000E+00  0.00000000E+00
  0.00000000E+00  0.00000000E+00  0.00000000E+00
  0.00000000E+00  0.00000000E+00  0.00000000E+00
  0.00000000E+00  0.00000000E+00  0.00000000E+00
  0.00000000E+00  0.00000000E+00  0.00000000E+00
  0.00000000E+00  0.00000000E+00  0.00000000E+00
  0.00000000E+00  0.00000000E+00  0.00000000E+00
  0.00000000E+00  0.00000000E+00  0.00000000E+00
  0.00000000E+00  0.00000000E+00  0.00000000E+00
  0.00000000E+00  0.00000000E+00  0.00000000E+00
  0.00000000E+00  0.00000000E+00  0.00000000E+00
  0.00000000E+00  0.00000000E+00  0.00000000E+00
  0.00000000E+00  0.00000000E+00  0.00000000E+00
  0.00000000E+00  0.00000000E+00  0.00000000E+00
  0.00000000E+00  0.00000000E+00  0.00000000E+00
  0.00000000E+00  0.00000000E+00  0.00000000E+00
  0.00000000E+00  0.00000000E+00  0.00000000E+00
  0.00000000E+00  0.00000000E+00  0.00000000E+00
  0.00000000E+00  0.00000000E+00  0.00000000E+00
  0.00000000E+00  0.00000000E+00  0.00000000E+00
  0.00000000E+00  0.00000000E+00  0.00000000E+00
  0.00000000E+00  0.00000000E+00  0.00000000E+00
  0.00000000E+00  0.00000000E+00  0.00000000E+00
  0.00000000E+00  0.00000000E+00  0.00000000E+00
  0.00000000E+00  0.00000000E+00  0.00000000E+00
  0.00000000E+00  0.00000000E+00  0.00000000E+00
  0.00000000E+00  0.00000000E+00  0.00000000E+00
  0.00000000E+00  0.00000000E+00  0.00000000E+00
  0.00000000E+00  0.00000000E+00  0.00000000E+00
  0.00000000E+00  0.00000000E+00  0.00000000E+00
  0.00000000E+00  0.00000000E+00  0.00000000E+00
  0.00000000E+00  0.00000000E+00  0.00000000E+00
  0.00000000E+00  0.00000000E+00  0.00000000E+00
  0.00000000E+00  0.00000000E+00  0.00000000E+00
  0.00000000E+00  0.00000000E+00  0.00000000E+00
  0.00000000E+00  0.00000000E+00  0.00000000E+00
  0.00000000E+00  0.00000000E+00  0.00000000E+00
  0.00000000E+00  0.00000000E+00  0.00000000E+00
  0.00000000E+00  0.00000000E+00  0.00000000E+00
  0.00000000E+00  0.00000000E+00  0.00000000E+00
  0.00000000E+00  0.00000000E+00  0.00000000E+00
