anatasa(101)2x2 Ti24O48                 
   1.00000000000000     
    10.8858003615999994    0.0000000000000000    0.0000000000000000
    -2.6195884084999999    7.0831099706999998    0.0000000000000000
     0.0000000000000000    0.0000000000000000   25.6399002074999984
   Ti   O    As   H    O 
    24    52     1     7     2
Selective dynamics
Direct
  0.4528848829978926  0.2264399379982365  0.0000000000000000   F   F   F
  0.4528848830006567  0.7264397739954163  0.0000000000000000   F   F   F
  0.9528847929999174  0.2264399379982365  0.0000000000000000   F   F   F
  0.9528847930026814  0.7264397739954163  0.0000000000000000   F   F   F
  0.0896649730030603  0.2948298750038489  0.1368299420008583   F   F   F
  0.0896649729944912  0.7948297259944468  0.1368299420008583   F   F   F
  0.5896647569968962  0.2948298750038489  0.1368299420008583   F   F   F
  0.5896647569975073  0.7948297259944468  0.1368299420008583   F   F   F
  0.2265694117121791  0.3646941511085605  0.2778141375593629   T   T   T
  0.2321228633435941  0.8638702294644667  0.2809086511193067   T   T   T
  0.7292892066839035  0.3600685962236878  0.2804260299502379   T   T   T
  0.7332118561554327  0.8625285582753386  0.2790144039602348   T   T   T
  0.2370799330039972  0.3685398700003546  0.0342099849999968   F   F   F
  0.2370799329979150  0.8685397510060184  0.0342099849999968   F   F   F
  0.7370797400002758  0.3685398700003546  0.0342099849999968   F   F   F
  0.7370797400033808  0.8685397510060184  0.0342099849999968   F   F   F
  0.3738598819958199  0.4369298820012730  0.1710399390016804   F   F   F
  0.3738598819965517  0.9369297620045458  0.1710399390016804   F   F   F
  0.8738597629967586  0.4369298820012730  0.1710399390016804   F   F   F
  0.8738597629974905  0.9369297620045458  0.1710399390016804   F   F   F
  0.0046127480714983  0.0010118818579375  0.3178147156886676   T   T   T
  0.0012990845874925  0.5018861803027302  0.3157110626580885   T   T   T
  0.5076033138664113  0.9975403912561476  0.3176699128351686   T   T   T
  0.5101719842818756  0.5013526929777536  0.3193764986969150   T   T   T
  0.2733348910015110  0.1366649419964219  0.0284599920005348   F   F   F
  0.2733348909993936  0.6366647480067797  0.0284599920005348   F   F   F
  0.7733347420000669  0.1366649419964219  0.0284599920005348   F   F   F
  0.7733347419979495  0.6366647480067797  0.0284599920005348   F   F   F
  0.4101148839977640  0.2050549390039293  0.1652899379990700   F   F   F
  0.4101148839992845  0.7050547599935797  0.1652899379990700   F   F   F
  0.9101147649987027  0.2050549390039293  0.1652899379990700   F   F   F
  0.9101147650002233  0.7050547599935797  0.1652899379990700   F   F   F
  0.0539372093301900  0.2780586795437586  0.3227767221376064   T   T   T
  0.0593351360711257  0.7785223558484775  0.3271478563896412   T   T   T
  0.5497419931608299  0.2690052346312839  0.3196395560678078   T   T   T
  0.5529502066611897  0.7714048285267123  0.3133313072259158   T   T   T
  0.0575299860020095  0.2787648739985400  0.0626699699997246   F   F   F
  0.0575299859968368  0.7787647250032563  0.0626699699997246   F   F   F
  0.5575297470025902  0.2787648739985400  0.0626699699997246   F   F   F
  0.5575297469974174  0.7787647250032563  0.0626699699997246   F   F   F
  0.1943099350030195  0.3471548859994584  0.1994999349998920   F   F   F
  0.1943099349978468  0.8471547370041748  0.1994999349998920   F   F   F
  0.6943097710003769  0.3471548859994584  0.1994999349998920   F   F   F
  0.6943097710043915  0.8471547370041748  0.1994999349998920   F   F   F
  0.3269164725555785  0.4453846839995736  0.3446851142373256   T   T   T
  0.3350624515606122  0.8929742390393138  0.3465260514851395   T   T   T
  0.8346861381151640  0.4146102952307092  0.3449968464841339   T   T   T
  0.8343934319172223  0.9151294464423776  0.3453249849316307   T   T   T
  0.0534049870019544  0.0267049930020065  0.1425799429995678   F   F   F
  0.0534049869955027  0.5267047880002522  0.1425799429995678   F   F   F
  0.5534047480025350  0.0267049930020065  0.1425799429995678   F   F   F
  0.5534047479960833  0.5267047880002522  0.1425799429995678   F   F   F
  0.1899388202053995  0.0947754365623528  0.2851166918936606   T   T   T
  0.1799998665543770  0.5907226763801045  0.2783248557327499   T   T   T
  0.6899226027195260  0.0910695595579448  0.2821914108577741   T   T   T
  0.6894136686284796  0.5898668296317461  0.2835349758995925   T   T   T
  0.4166298809971991  0.4583148960031167  0.0057499979994802   F   F   F
  0.4166298809979310  0.9583147760063895  0.0057499979994802   F   F   F
  0.9166297909992238  0.4583148960031167  0.0057499979994802   F   F   F
  0.9166297909999557  0.9583147760063895  0.0057499979994802   F   F   F
  0.2692148690028304  0.3846048710056635  0.1083699689980548   F   F   F
  0.2692148690025320  0.8846047519972018  0.1083699689980548   F   F   F
  0.7692147490024652  0.3846048710056635  0.1083699689980548   F   F   F
  0.7692147490021739  0.8846047519972018  0.1083699689980548   F   F   F
  0.4091553129152690  0.4477574990849066  0.2509143126147068   T   T   T
  0.4118431189304216  0.9587630938861592  0.2501938138009285   T   T   T
  0.9111917363949648  0.4573203637788846  0.2491510892419320   T   T   T
  0.9167394690721198  0.9532436841963798  0.2496453213262006   T   T   T
  0.6324300000018965  0.8162100000021084  0.9715400000002106   F   F   F
  0.6324299999956011  0.3162099999950527  0.9715400000002106   F   F   F
  0.1324300000018965  0.8162100000021084  0.9715400000002106   F   F   F
  0.1324299999956011  0.3162099999950527  0.9715400000002106   F   F   F
  0.2239096590659306  0.2287171816841285  0.4183244506492475   T   T   T
  0.3039891567853521  0.6471505937747150  0.4266864239802443   T   T   T
  0.3904812896920177  0.4237342243885813  0.4866864074982777   T   T   T
  0.5201274476561255  0.5135673523583155  0.3996774575691686   T   T   T
  0.3544516041919544  0.4475835588314281  0.4182312585697286   T   T   T
  0.2380044855340989  0.1429993696716766  0.4460534300395387   T   T   T
  0.3076798249638916  0.7149017994688013  0.3922927140509163   T   T   T
  0.4853754980998412  0.4860335272126454  0.4895362048672108   T   T   T
  0.2800567184143942  0.8698703859533793  0.4743861639951203   T   T   T
  0.3394827139556464  0.0596691527870451  0.5064144754381580   T   T   T
  0.6293067775887533  0.8975131762903121  0.3979407413638537   T   T   T
  0.5149782970742723  0.9474034802153803  0.4234591888384086   T   T   T
  0.2639520021982334  0.9834914723253030  0.4863040760864074   T   T   T
  0.5877302289787060  0.9942417886483169  0.3988544140843427   T   T   T
 
  0.00000000E+00  0.00000000E+00  0.00000000E+00
  0.00000000E+00  0.00000000E+00  0.00000000E+00
  0.00000000E+00  0.00000000E+00  0.00000000E+00
  0.00000000E+00  0.00000000E+00  0.00000000E+00
  0.00000000E+00  0.00000000E+00  0.00000000E+00
  0.00000000E+00  0.00000000E+00  0.00000000E+00
  0.00000000E+00  0.00000000E+00  0.00000000E+00
  0.00000000E+00  0.00000000E+00  0.00000000E+00
  0.00000000E+00  0.00000000E+00  0.00000000E+00
  0.00000000E+00  0.00000000E+00  0.00000000E+00
  0.00000000E+00  0.00000000E+00  0.00000000E+00
  0.00000000E+00  0.00000000E+00  0.00000000E+00
  0.00000000E+00  0.00000000E+00  0.00000000E+00
  0.00000000E+00  0.00000000E+00  0.00000000E+00
  0.00000000E+00  0.00000000E+00  0.00000000E+00
  0.00000000E+00  0.00000000E+00  0.00000000E+00
  0.00000000E+00  0.00000000E+00  0.00000000E+00
  0.00000000E+00  0.00000000E+00  0.00000000E+00
  0.00000000E+00  0.00000000E+00  0.00000000E+00
  0.00000000E+00  0.00000000E+00  0.00000000E+00
  0.00000000E+00  0.00000000E+00  0.00000000E+00
  0.00000000E+00  0.00000000E+00  0.00000000E+00
  0.00000000E+00  0.00000000E+00  0.00000000E+00
  0.00000000E+00  0.00000000E+00  0.00000000E+00
  0.00000000E+00  0.00000000E+00  0.00000000E+00
  0.00000000E+00  0.00000000E+00  0.00000000E+00
  0.00000000E+00  0.00000000E+00  0.00000000E+00
  0.00000000E+00  0.00000000E+00  0.00000000E+00
  0.00000000E+00  0.00000000E+00  0.00000000E+00
  0.00000000E+00  0.00000000E+00  0.00000000E+00
  0.00000000E+00  0.00000000E+00  0.00000000E+00
  0.00000000E+00  0.00000000E+00  0.00000000E+00
  0.00000000E+00  0.00000000E+00  0.00000000E+00
  0.00000000E+00  0.00000000E+00  0.00000000E+00
  0.00000000E+00  0.00000000E+00  0.00000000E+00
  0.00000000E+00  0.00000000E+00  0.00000000E+00
  0.00000000E+00  0.00000000E+00  0.00000000E+00
  0.00000000E+00  0.00000000E+00  0.00000000E+00
  0.00000000E+00  0.00000000E+00  0.00000000E+00
  0.00000000E+00  0.00000000E+00  0.00000000E+00
  0.00000000E+00  0.00000000E+00  0.00000000E+00
  0.00000000E+00  0.00000000E+00  0.00000000E+00
  0.00000000E+00  0.00000000E+00  0.00000000E+00
  0.00000000E+00  0.00000000E+00  0.00000000E+00
  0.00000000E+00  0.00000000E+00  0.00000000E+00
  0.00000000E+00  0.00000000E+00  0.00000000E+00
  0.00000000E+00  0.00000000E+00  0.00000000E+00
  0.00000000E+00  0.00000000E+00  0.00000000E+00
  0.00000000E+00  0.00000000E+00  0.00000000E+00
  0.00000000E+00  0.00000000E+00  0.00000000E+00
  0.00000000E+00  0.00000000E+00  0.00000000E+00
  0.00000000E+00  0.00000000E+00  0.00000000E+00
  0.00000000E+00  0.00000000E+00  0.00000000E+00
  0.00000000E+00  0.00000000E+00  0.00000000E+00
  0.00000000E+00  0.00000000E+00  0.00000000E+00
  0.00000000E+00  0.00000000E+00  0.00000000E+00
  0.00000000E+00  0.00000000E+00  0.00000000E+00
  0.00000000E+00  0.00000000E+00  0.00000000E+00
  0.00000000E+00  0.00000000E+00  0.00000000E+00
  0.00000000E+00  0.00000000E+00  0.00000000E+00
  0.00000000E+00  0.00000000E+00  0.00000000E+00
  0.00000000E+00  0.00000000E+00  0.00000000E+00
  0.00000000E+00  0.00000000E+00  0.00000000E+00
  0.00000000E+00  0.00000000E+00  0.00000000E+00
  0.00000000E+00  0.00000000E+00  0.00000000E+00
  0.00000000E+00  0.00000000E+00  0.00000000E+00
  0.00000000E+00  0.00000000E+00  0.00000000E+00
  0.00000000E+00  0.00000000E+00  0.00000000E+00
  0.00000000E+00  0.00000000E+00  0.00000000E+00
  0.00000000E+00  0.00000000E+00  0.00000000E+00
  0.00000000E+00  0.00000000E+00  0.00000000E+00
  0.00000000E+00  0.00000000E+00  0.00000000E+00
  0.00000000E+00  0.00000000E+00  0.00000000E+00
  0.00000000E+00  0.00000000E+00  0.00000000E+00
  0.00000000E+00  0.00000000E+00  0.00000000E+00
  0.00000000E+00  0.00000000E+00  0.00000000E+00
  0.00000000E+00  0.00000000E+00  0.00000000E+00
  0.00000000E+00  0.00000000E+00  0.00000000E+00
  0.00000000E+00  0.00000000E+00  0.00000000E+00
  0.00000000E+00  0.00000000E+00  0.00000000E+00
  0.00000000E+00  0.00000000E+00  0.00000000E+00
  0.00000000E+00  0.00000000E+00  0.00000000E+00
  0.00000000E+00  0.00000000E+00  0.00000000E+00
  0.00000000E+00  0.00000000E+00  0.00000000E+00
  0.00000000E+00  0.00000000E+00  0.00000000E+00
  0.00000000E+00  0.00000000E+00  0.00000000E+00
