anatasa(101)2x2 Ti24O48                 
   1.00000000000000     
    10.8858003615999994    0.0000000000000000    0.0000000000000000
    -2.6195884084999999    7.0831099706999998    0.0000000000000000
     0.0000000000000000    0.0000000000000000   25.6399002074999984
   Ti   O    As   H    O 
    24    53     2     4     2
Selective dynamics
Direct
  0.4528848829978926  0.2264399379982365  0.0000000000000000   F   F   F
  0.4528848830006567  0.7264397739954163  0.0000000000000000   F   F   F
  0.9528847929999174  0.2264399379982365  0.0000000000000000   F   F   F
  0.9528847930026814  0.7264397739954163  0.0000000000000000   F   F   F
  0.0896649730030603  0.2948298750038489  0.1368299420008583   F   F   F
  0.0896649729944912  0.7948297259944468  0.1368299420008583   F   F   F
  0.5896647569968962  0.2948298750038489  0.1368299420008583   F   F   F
  0.5896647569975073  0.7948297259944468  0.1368299420008583   F   F   F
  0.2278467753726477  0.3623287448661343  0.2774807701140212   T   T   T
  0.2288579947799261  0.8637124809491529  0.2793804200286510   T   T   T
  0.7426161973715709  0.3678489666106564  0.2811159981349424   T   T   T
  0.7191289951872016  0.8577582442179834  0.2781214936783652   T   T   T
  0.2370799330039972  0.3685398700003546  0.0342099849999968   F   F   F
  0.2370799329979150  0.8685397510060184  0.0342099849999968   F   F   F
  0.7370797400002758  0.3685398700003546  0.0342099849999968   F   F   F
  0.7370797400033808  0.8685397510060184  0.0342099849999968   F   F   F
  0.3738598819958199  0.4369298820012730  0.1710399390016804   F   F   F
  0.3738598819965517  0.9369297620045458  0.1710399390016804   F   F   F
  0.8738597629967586  0.4369298820012730  0.1710399390016804   F   F   F
  0.8738597629974905  0.9369297620045458  0.1710399390016804   F   F   F
  0.0060526913256136  0.0016440914155132  0.3132555440788816   T   T   T
  0.0143766390989798  0.5054421273458071  0.3267937372857557   T   T   T
  0.5012107502071639  0.0036357899627269  0.3148127820214636   T   T   T
  0.5119577230481722  0.4969553241624267  0.3216702890055220   T   T   T
  0.2733348910015110  0.1366649419964219  0.0284599920005348   F   F   F
  0.2733348909993936  0.6366647480067797  0.0284599920005348   F   F   F
  0.7733347420000669  0.1366649419964219  0.0284599920005348   F   F   F
  0.7733347419979495  0.6366647480067797  0.0284599920005348   F   F   F
  0.4101148839977640  0.2050549390039293  0.1652899379990700   F   F   F
  0.4101148839992845  0.7050547599935797  0.1652899379990700   F   F   F
  0.9101147649987027  0.2050549390039293  0.1652899379990700   F   F   F
  0.9101147650002233  0.7050547599935797  0.1652899379990700   F   F   F
  0.0548707549130561  0.2681128415086295  0.3221885054192377   T   T   T
  0.0532049293041241  0.7828403755573015  0.3212879034192499   T   T   T
  0.5615882521880202  0.2744321007994484  0.3210622335870560   T   T   T
  0.5457611844033158  0.7728015283507823  0.3179581465289181   T   T   T
  0.0575299860020095  0.2787648739985400  0.0626699699997246   F   F   F
  0.0575299859968368  0.7787647250032563  0.0626699699997246   F   F   F
  0.5575297470025902  0.2787648739985400  0.0626699699997246   F   F   F
  0.5575297469974174  0.7787647250032563  0.0626699699997246   F   F   F
  0.1943099350030195  0.3471548859994584  0.1994999349998920   F   F   F
  0.1943099349978468  0.8471547370041748  0.1994999349998920   F   F   F
  0.6943097710003769  0.3471548859994584  0.1994999349998920   F   F   F
  0.6943097710043915  0.8471547370041748  0.1994999349998920   F   F   F
  0.3263123443515086  0.3765597868462652  0.3456015047853004   T   T   T
  0.3322756626388571  0.9411376348305301  0.3426160095968640   T   T   T
  0.8382267647761917  0.4129271395310359  0.3473053110596767   T   T   T
  0.8291305756421036  0.9129119687576442  0.3473070972817754   T   T   T
  0.0534049870019544  0.0267049930020065  0.1425799429995678   F   F   F
  0.0534049869955027  0.5267047880002522  0.1425799429995678   F   F   F
  0.5534047480025350  0.0267049930020065  0.1425799429995678   F   F   F
  0.5534047479960833  0.5267047880002522  0.1425799429995678   F   F   F
  0.1767111763295468  0.0876429580935848  0.2751928827306954   T   T   T
  0.1927405393043443  0.5938296787123996  0.2849076005385996   T   T   T
  0.6883902790683670  0.0908215748216589  0.2817803040250399   T   T   T
  0.6878597139037129  0.5918718133904142  0.2832003539414049   T   T   T
  0.4166298809971991  0.4583148960031167  0.0057499979994802   F   F   F
  0.4166298809979310  0.9583147760063895  0.0057499979994802   F   F   F
  0.9166297909992238  0.4583148960031167  0.0057499979994802   F   F   F
  0.9166297909999557  0.9583147760063895  0.0057499979994802   F   F   F
  0.2692148690028304  0.3846048710056635  0.1083699689980548   F   F   F
  0.2692148690025320  0.8846047519972018  0.1083699689980548   F   F   F
  0.7692147490024652  0.3846048710056635  0.1083699689980548   F   F   F
  0.7692147490021739  0.8846047519972018  0.1083699689980548   F   F   F
  0.4107473404114570  0.4514092421148943  0.2521268508031937   T   T   T
  0.4119883662887694  0.9552783432753937  0.2483005908940244   T   T   T
  0.9201700996360884  0.4588085716805400  0.2517130256064468   T   T   T
  0.9043697696178232  0.9500815128276460  0.2505742624556112   T   T   T
  0.6324300000018965  0.8162100000021084  0.9715400000002106   F   F   F
  0.6324299999956011  0.3162099999950527  0.9715400000002106   F   F   F
  0.1324300000018965  0.8162100000021084  0.9715400000002106   F   F   F
  0.1324299999956011  0.3162099999950527  0.9715400000002106   F   F   F
  0.3931208694460973  0.7181094782262538  0.4166944332110570   T   T   T
  0.1150551185507248  0.5633387482134103  0.3957080781215537   T   T   T
  0.5712590820360365  0.5296890434413927  0.3957518063393538   T   T   T
  0.5027504918124132  0.5710532654944083  0.5018299088339426   T   T   T
  0.2060495112568535  0.6802118354833754  0.4995937428126592   T   T   T
  0.5276041434501323  0.6593142757374338  0.4426263032249298   T   T   T
  0.2282412947642586  0.5931409476453620  0.4436236577599187   T   T   T
  0.2940968294392867  0.3510586885584105  0.3823449262221686   T   T   T
  0.2995980588937770  0.3562987353038707  0.4737029807543444   T   T   T
  0.7862300371994063  0.9048881948126907  0.3816119569287212   T   T   T
  0.6835042450677111  0.9414369376770799  0.4689052722270302   T   T   T
  0.2404130912936218  0.3582892017403888  0.4446539257935678   T   T   T
  0.6597974355356809  0.8826065896868570  0.4345513289967604   T   T   T
 
  0.00000000E+00  0.00000000E+00  0.00000000E+00
  0.00000000E+00  0.00000000E+00  0.00000000E+00
  0.00000000E+00  0.00000000E+00  0.00000000E+00
  0.00000000E+00  0.00000000E+00  0.00000000E+00
  0.00000000E+00  0.00000000E+00  0.00000000E+00
  0.00000000E+00  0.00000000E+00  0.00000000E+00
  0.00000000E+00  0.00000000E+00  0.00000000E+00
  0.00000000E+00  0.00000000E+00  0.00000000E+00
  0.00000000E+00  0.00000000E+00  0.00000000E+00
  0.00000000E+00  0.00000000E+00  0.00000000E+00
  0.00000000E+00  0.00000000E+00  0.00000000E+00
  0.00000000E+00  0.00000000E+00  0.00000000E+00
  0.00000000E+00  0.00000000E+00  0.00000000E+00
  0.00000000E+00  0.00000000E+00  0.00000000E+00
  0.00000000E+00  0.00000000E+00  0.00000000E+00
  0.00000000E+00  0.00000000E+00  0.00000000E+00
  0.00000000E+00  0.00000000E+00  0.00000000E+00
  0.00000000E+00  0.00000000E+00  0.00000000E+00
  0.00000000E+00  0.00000000E+00  0.00000000E+00
  0.00000000E+00  0.00000000E+00  0.00000000E+00
  0.00000000E+00  0.00000000E+00  0.00000000E+00
  0.00000000E+00  0.00000000E+00  0.00000000E+00
  0.00000000E+00  0.00000000E+00  0.00000000E+00
  0.00000000E+00  0.00000000E+00  0.00000000E+00
  0.00000000E+00  0.00000000E+00  0.00000000E+00
  0.00000000E+00  0.00000000E+00  0.00000000E+00
  0.00000000E+00  0.00000000E+00  0.00000000E+00
  0.00000000E+00  0.00000000E+00  0.00000000E+00
  0.00000000E+00  0.00000000E+00  0.00000000E+00
  0.00000000E+00  0.00000000E+00  0.00000000E+00
  0.00000000E+00  0.00000000E+00  0.00000000E+00
  0.00000000E+00  0.00000000E+00  0.00000000E+00
  0.00000000E+00  0.00000000E+00  0.00000000E+00
  0.00000000E+00  0.00000000E+00  0.00000000E+00
  0.00000000E+00  0.00000000E+00  0.00000000E+00
  0.00000000E+00  0.00000000E+00  0.00000000E+00
  0.00000000E+00  0.00000000E+00  0.00000000E+00
  0.00000000E+00  0.00000000E+00  0.00000000E+00
  0.00000000E+00  0.00000000E+00  0.00000000E+00
  0.00000000E+00  0.00000000E+00  0.00000000E+00
  0.00000000E+00  0.00000000E+00  0.00000000E+00
  0.00000000E+00  0.00000000E+00  0.00000000E+00
  0.00000000E+00  0.00000000E+00  0.00000000E+00
  0.00000000E+00  0.00000000E+00  0.00000000E+00
  0.00000000E+00  0.00000000E+00  0.00000000E+00
  0.00000000E+00  0.00000000E+00  0.00000000E+00
  0.00000000E+00  0.00000000E+00  0.00000000E+00
  0.00000000E+00  0.00000000E+00  0.00000000E+00
  0.00000000E+00  0.00000000E+00  0.00000000E+00
  0.00000000E+00  0.00000000E+00  0.00000000E+00
  0.00000000E+00  0.00000000E+00  0.00000000E+00
  0.00000000E+00  0.00000000E+00  0.00000000E+00
  0.00000000E+00  0.00000000E+00  0.00000000E+00
  0.00000000E+00  0.00000000E+00  0.00000000E+00
  0.00000000E+00  0.00000000E+00  0.00000000E+00
  0.00000000E+00  0.00000000E+00  0.00000000E+00
  0.00000000E+00  0.00000000E+00  0.00000000E+00
  0.00000000E+00  0.00000000E+00  0.00000000E+00
  0.00000000E+00  0.00000000E+00  0.00000000E+00
  0.00000000E+00  0.00000000E+00  0.00000000E+00
  0.00000000E+00  0.00000000E+00  0.00000000E+00
  0.00000000E+00  0.00000000E+00  0.00000000E+00
  0.00000000E+00  0.00000000E+00  0.00000000E+00
  0.00000000E+00  0.00000000E+00  0.00000000E+00
  0.00000000E+00  0.00000000E+00  0.00000000E+00
  0.00000000E+00  0.00000000E+00  0.00000000E+00
  0.00000000E+00  0.00000000E+00  0.00000000E+00
  0.00000000E+00  0.00000000E+00  0.00000000E+00
  0.00000000E+00  0.00000000E+00  0.00000000E+00
  0.00000000E+00  0.00000000E+00  0.00000000E+00
  0.00000000E+00  0.00000000E+00  0.00000000E+00
  0.00000000E+00  0.00000000E+00  0.00000000E+00
  0.00000000E+00  0.00000000E+00  0.00000000E+00
  0.00000000E+00  0.00000000E+00  0.00000000E+00
  0.00000000E+00  0.00000000E+00  0.00000000E+00
  0.00000000E+00  0.00000000E+00  0.00000000E+00
  0.00000000E+00  0.00000000E+00  0.00000000E+00
  0.00000000E+00  0.00000000E+00  0.00000000E+00
  0.00000000E+00  0.00000000E+00  0.00000000E+00
  0.00000000E+00  0.00000000E+00  0.00000000E+00
  0.00000000E+00  0.00000000E+00  0.00000000E+00
  0.00000000E+00  0.00000000E+00  0.00000000E+00
  0.00000000E+00  0.00000000E+00  0.00000000E+00
  0.00000000E+00  0.00000000E+00  0.00000000E+00
  0.00000000E+00  0.00000000E+00  0.00000000E+00
