anatasa(101)2x2 Ti24O48                 
   1.00000000000000     
    10.8858003615999994    0.0000000000000000    0.0000000000000000
    -2.6195884084999999    7.0831099706999998    0.0000000000000000
     0.0000000000000000    0.0000000000000000   25.6399002074999984
   Ti   O    As   H 
    24    51     1     3
Selective dynamics
Direct
  0.4528848830000030  0.2264399379999986  0.0000000000000000   F   F   F
  0.4528848830000030  0.7264397739999993  0.0000000000000000   F   F   F
  0.9528847930000026  0.2264399379999986  0.0000000000000000   F   F   F
  0.9528847930000026  0.7264397739999993  0.0000000000000000   F   F   F
  0.0896649729999979  0.2948298749999978  0.1368299419999985   F   F   F
  0.0896649729999979  0.7948297260000032  0.1368299419999985   F   F   F
  0.5896647570000013  0.2948298749999978  0.1368299419999985   F   F   F
  0.5896647570000013  0.7948297260000032  0.1368299419999985   F   F   F
  0.2248245538581335  0.3601291041890450  0.2798956331714382   T   T   T
  0.2251163052442112  0.8568095481963797  0.2826964883323853   T   T   T
  0.7296102843699778  0.3582878137101391  0.2802500474768480   T   T   T
  0.7324258392346120  0.8632336564773896  0.2803395030546106   T   T   T
  0.2370799329999969  0.3685398699999993  0.0342099849999968   F   F   F
  0.2370799329999969  0.8685397510000001  0.0342099849999968   F   F   F
  0.7370797399999987  0.3685398699999993  0.0342099849999968   F   F   F
  0.7370797399999987  0.8685397510000001  0.0342099849999968   F   F   F
  0.3738598819999979  0.4369298820000012  0.1710399390000035   F   F   F
  0.3738598819999979  0.9369297619999983  0.1710399390000035   F   F   F
  0.8738597629999987  0.4369298820000012  0.1710399390000035   F   F   F
  0.8738597629999987  0.9369297619999983  0.1710399390000035   F   F   F
  0.0018934248468532 -0.0007928527372430  0.3184838856146518   T   T   T
 -0.0014843994167545  0.4939916950630134  0.3183226206587769   T   T   T
  0.5030407424177058 -0.0057062349271032  0.3147194575742800   T   T   T
  0.5112768193415413  0.5006164957409522  0.3168030136719510   T   T   T
  0.2733348909999975  0.1366649420000030  0.0284599920000019   F   F   F
  0.2733348909999975  0.6366647480000012  0.0284599920000019   F   F   F
  0.7733347420000030  0.1366649420000030  0.0284599920000019   F   F   F
  0.7733347420000030  0.6366647480000012  0.0284599920000019   F   F   F
  0.4101148840000022  0.2050549390000000  0.1652899380000008   F   F   F
  0.4101148840000022  0.7050547600000030  0.1652899380000008   F   F   F
  0.9101147650000030  0.2050549390000000  0.1652899380000008   F   F   F
  0.9101147650000030  0.7050547600000030  0.1652899380000008   F   F   F
  0.0494031799567677  0.2717840473109123  0.3320259297888946   T   T   T
  0.0531791801835781  0.7722545667551883  0.3297322531670970   T   T   T
  0.5525039512187173  0.2686740454219264  0.3237322933437723   T   T   T
  0.5573956427105641  0.7748665315687129  0.3233608823650249   T   T   T
  0.0575299859999987  0.2787648739999966  0.0626699700000017   F   F   F
  0.0575299859999987  0.7787647250000020  0.0626699700000017   F   F   F
  0.5575297469999967  0.2787648739999966  0.0626699700000017   F   F   F
  0.5575297469999967  0.7787647250000020  0.0626699700000017   F   F   F
  0.1943099349999997  0.3471548859999984  0.1994999349999986   F   F   F
  0.1943099349999997  0.8471547369999968  0.1994999349999986   F   F   F
  0.6943097710000004  0.3471548859999984  0.1994999349999986   F   F   F
  0.6943097710000004  0.8471547369999968  0.1994999349999986   F   F   F
  0.3336575184886889  0.4271882656773172  0.3496740926607116   T   T   T
  0.3375190713045422  0.8950583048387765  0.3476890010331270   T   T   T
  0.8281877664220360  0.4089084200800593  0.3458150913608219   T   T   T
  0.8313680611130331  0.9117831814006470  0.3456268735205568   T   T   T
  0.0534049870000004  0.0267049930000027  0.1425799430000012   F   F   F
  0.0534049870000004  0.5267047880000035  0.1425799430000012   F   F   F
  0.5534047479999984  0.0267049930000027  0.1425799430000012   F   F   F
  0.5534047479999984  0.5267047880000035  0.1425799430000012   F   F   F
  0.1853240140712697  0.0836044741173443  0.2875352020807160   T   T   T
  0.1753657224060167  0.5890452395153398  0.2823055738574494   T   T   T
  0.6835040490987656  0.0870205342196874  0.2800387273730571   T   T   T
  0.6880344665456222  0.5892309863758414  0.2824813881769644   T   T   T
  0.4166298809999986  0.4583148959999974  0.0057499979999989   F   F   F
  0.4166298809999986  0.9583147760000017  0.0057499979999989   F   F   F
  0.9166297909999983  0.4583148959999974  0.0057499979999989   F   F   F
  0.9166297909999983  0.9583147760000017  0.0057499979999989   F   F   F
  0.2692148690000025  0.3846048710000005  0.1083699690000017   F   F   F
  0.2692148690000025  0.8846047520000013  0.1083699690000017   F   F   F
  0.7692147489999996  0.3846048710000005  0.1083699690000017   F   F   F
  0.7692147489999996  0.8846047520000013  0.1083699690000017   F   F   F
  0.4201201336081024  0.4564017165061111  0.2509150362732124   T   T   T
  0.4075416219685744  0.9518672816412854  0.2503082814399559   T   T   T
  0.9110907962193846  0.4504642794364613  0.2503592881909321   T   T   T
  0.9147082726547168  0.9565548125621576  0.2502316002712704   T   T   T
  0.6324299999999994  0.8162099999999981  0.9715399999999974   F   F   F
  0.6324299999999994  0.3162099999999981  0.9715399999999974   F   F   F
  0.1324299999999994  0.8162099999999981  0.9715399999999974   F   F   F
  0.1324299999999994  0.3162099999999981  0.9715399999999974   F   F   F
  0.3169686502491287  0.6571589491702406  0.4316690307246632   T   T   T
  0.5189824651853735  0.5089981029873465  0.4102333467636390   T   T   T
  0.3650258993813061  0.3775610961616647  0.4914659888947931   T   T   T
  0.3412696402236538  0.4402008184876537  0.4220567124927878   T   T   T
  0.3211378758748157  0.7290062931238281  0.3979741384709151   T   T   T
  0.5609305946377228  0.4511692265650771  0.4354042911810618   T   T   T
  0.2803263775601617  0.2969257062548594  0.5052172000289503   T   T   T
 
  0.00000000E+00  0.00000000E+00  0.00000000E+00
  0.00000000E+00  0.00000000E+00  0.00000000E+00
  0.00000000E+00  0.00000000E+00  0.00000000E+00
  0.00000000E+00  0.00000000E+00  0.00000000E+00
  0.00000000E+00  0.00000000E+00  0.00000000E+00
  0.00000000E+00  0.00000000E+00  0.00000000E+00
  0.00000000E+00  0.00000000E+00  0.00000000E+00
  0.00000000E+00  0.00000000E+00  0.00000000E+00
  0.00000000E+00  0.00000000E+00  0.00000000E+00
  0.00000000E+00  0.00000000E+00  0.00000000E+00
  0.00000000E+00  0.00000000E+00  0.00000000E+00
  0.00000000E+00  0.00000000E+00  0.00000000E+00
  0.00000000E+00  0.00000000E+00  0.00000000E+00
  0.00000000E+00  0.00000000E+00  0.00000000E+00
  0.00000000E+00  0.00000000E+00  0.00000000E+00
  0.00000000E+00  0.00000000E+00  0.00000000E+00
  0.00000000E+00  0.00000000E+00  0.00000000E+00
  0.00000000E+00  0.00000000E+00  0.00000000E+00
  0.00000000E+00  0.00000000E+00  0.00000000E+00
  0.00000000E+00  0.00000000E+00  0.00000000E+00
  0.00000000E+00  0.00000000E+00  0.00000000E+00
  0.00000000E+00  0.00000000E+00  0.00000000E+00
  0.00000000E+00  0.00000000E+00  0.00000000E+00
  0.00000000E+00  0.00000000E+00  0.00000000E+00
  0.00000000E+00  0.00000000E+00  0.00000000E+00
  0.00000000E+00  0.00000000E+00  0.00000000E+00
  0.00000000E+00  0.00000000E+00  0.00000000E+00
  0.00000000E+00  0.00000000E+00  0.00000000E+00
  0.00000000E+00  0.00000000E+00  0.00000000E+00
  0.00000000E+00  0.00000000E+00  0.00000000E+00
  0.00000000E+00  0.00000000E+00  0.00000000E+00
  0.00000000E+00  0.00000000E+00  0.00000000E+00
  0.00000000E+00  0.00000000E+00  0.00000000E+00
  0.00000000E+00  0.00000000E+00  0.00000000E+00
  0.00000000E+00  0.00000000E+00  0.00000000E+00
  0.00000000E+00  0.00000000E+00  0.00000000E+00
  0.00000000E+00  0.00000000E+00  0.00000000E+00
  0.00000000E+00  0.00000000E+00  0.00000000E+00
  0.00000000E+00  0.00000000E+00  0.00000000E+00
  0.00000000E+00  0.00000000E+00  0.00000000E+00
  0.00000000E+00  0.00000000E+00  0.00000000E+00
  0.00000000E+00  0.00000000E+00  0.00000000E+00
  0.00000000E+00  0.00000000E+00  0.00000000E+00
  0.00000000E+00  0.00000000E+00  0.00000000E+00
  0.00000000E+00  0.00000000E+00  0.00000000E+00
  0.00000000E+00  0.00000000E+00  0.00000000E+00
  0.00000000E+00  0.00000000E+00  0.00000000E+00
  0.00000000E+00  0.00000000E+00  0.00000000E+00
  0.00000000E+00  0.00000000E+00  0.00000000E+00
  0.00000000E+00  0.00000000E+00  0.00000000E+00
  0.00000000E+00  0.00000000E+00  0.00000000E+00
  0.00000000E+00  0.00000000E+00  0.00000000E+00
  0.00000000E+00  0.00000000E+00  0.00000000E+00
  0.00000000E+00  0.00000000E+00  0.00000000E+00
  0.00000000E+00  0.00000000E+00  0.00000000E+00
  0.00000000E+00  0.00000000E+00  0.00000000E+00
  0.00000000E+00  0.00000000E+00  0.00000000E+00
  0.00000000E+00  0.00000000E+00  0.00000000E+00
  0.00000000E+00  0.00000000E+00  0.00000000E+00
  0.00000000E+00  0.00000000E+00  0.00000000E+00
  0.00000000E+00  0.00000000E+00  0.00000000E+00
  0.00000000E+00  0.00000000E+00  0.00000000E+00
  0.00000000E+00  0.00000000E+00  0.00000000E+00
  0.00000000E+00  0.00000000E+00  0.00000000E+00
  0.00000000E+00  0.00000000E+00  0.00000000E+00
  0.00000000E+00  0.00000000E+00  0.00000000E+00
  0.00000000E+00  0.00000000E+00  0.00000000E+00
  0.00000000E+00  0.00000000E+00  0.00000000E+00
  0.00000000E+00  0.00000000E+00  0.00000000E+00
  0.00000000E+00  0.00000000E+00  0.00000000E+00
  0.00000000E+00  0.00000000E+00  0.00000000E+00
  0.00000000E+00  0.00000000E+00  0.00000000E+00
  0.00000000E+00  0.00000000E+00  0.00000000E+00
  0.00000000E+00  0.00000000E+00  0.00000000E+00
  0.00000000E+00  0.00000000E+00  0.00000000E+00
  0.00000000E+00  0.00000000E+00  0.00000000E+00
  0.00000000E+00  0.00000000E+00  0.00000000E+00
  0.00000000E+00  0.00000000E+00  0.00000000E+00
  0.00000000E+00  0.00000000E+00  0.00000000E+00
