As2O3-anatasa(101)2x2 Ti24O48           
   1.00000000000000     
    10.8858003615999994    0.0000000000000000    0.0000000000000000
    -2.6195884084999999    7.0831099706999998    0.0000000000000000
     0.0000000000000000    0.0000000000000000   25.6399002074999984
   Ti   O    As
    24    51     2
Selective dynamics
Direct
  0.4528848829978926  0.2264399379982365  0.0000000000000000   F   F   F
  0.4528848830006567  0.7264397739954163  0.0000000000000000   F   F   F
  0.9528847929999174  0.2264399379982365  0.0000000000000000   F   F   F
  0.9528847930026814  0.7264397739954163  0.0000000000000000   F   F   F
  0.0896649730030603  0.2948298750038489  0.1368299420008583   F   F   F
  0.0896649729944912  0.7948297259944468  0.1368299420008583   F   F   F
  0.5896647569968962  0.2948298750038489  0.1368299420008583   F   F   F
  0.5896647569975073  0.7948297259944468  0.1368299420008583   F   F   F
  0.2261946752302413  0.3609465406052959  0.2761969562068708   T   T   T
  0.2320629752295674  0.8627887100884500  0.2795877988873982   T   T   T
  0.7387841018857951  0.3686011628433015  0.2802363349553622   T   T   T
  0.7303985632448922  0.8651425045590129  0.2795047125402911   T   T   T
  0.2370799330039972  0.3685398700003546  0.0342099849999968   F   F   F
  0.2370799329979150  0.8685397510060184  0.0342099849999968   F   F   F
  0.7370797400002758  0.3685398700003546  0.0342099849999968   F   F   F
  0.7370797400033808  0.8685397510060184  0.0342099849999968   F   F   F
  0.3738598819958199  0.4369298820012730  0.1710399390016804   F   F   F
  0.3738598819965517  0.9369297620045458  0.1710399390016804   F   F   F
  0.8738597629967586  0.4369298820012730  0.1710399390016804   F   F   F
  0.8738597629974905  0.9369297620045458  0.1710399390016804   F   F   F
  0.0041009048369905 -0.0046077723851994  0.3149736328602327   T   T   T
  0.0128106626019647  0.5028350517712515  0.3218631855759468   T   T   T
  0.5054559012444378  0.0045039205340590  0.3151960821019084   T   T   T
  0.5101623056856637  0.5037037748303681  0.3198995415811122   T   T   T
  0.2733348910015110  0.1366649419964219  0.0284599920005348   F   F   F
  0.2733348909993936  0.6366647480067797  0.0284599920005348   F   F   F
  0.7733347420000669  0.1366649419964219  0.0284599920005348   F   F   F
  0.7733347419979495  0.6366647480067797  0.0284599920005348   F   F   F
  0.4101148839977640  0.2050549390039293  0.1652899379990700   F   F   F
  0.4101148839992845  0.7050547599935797  0.1652899379990700   F   F   F
  0.9101147649987027  0.2050549390039293  0.1652899379990700   F   F   F
  0.9101147650002233  0.7050547599935797  0.1652899379990700   F   F   F
  0.0521387589194976  0.2676940912442750  0.3171289461069529   T   T   T
  0.0573896468125873  0.7775491329991516  0.3217568322912925   T   T   T
  0.5551370056540387  0.2769440891930806  0.3216958136860462   T   T   T
  0.5515428303156803  0.7766154971776847  0.3194771908200907   T   T   T
  0.0575299860020095  0.2787648739985400  0.0626699699997246   F   F   F
  0.0575299859968368  0.7787647250032563  0.0626699699997246   F   F   F
  0.5575297470025902  0.2787648739985400  0.0626699699997246   F   F   F
  0.5575297469974174  0.7787647250032563  0.0626699699997246   F   F   F
  0.1943099350030195  0.3471548859994584  0.1994999349998920   F   F   F
  0.1943099349978468  0.8471547370041748  0.1994999349998920   F   F   F
  0.6943097710003769  0.3471548859994584  0.1994999349998920   F   F   F
  0.6943097710043915  0.8471547370041748  0.1994999349998920   F   F   F
  0.3210214444981433  0.4183118512806154  0.3479098970475473   T   T   T
  0.3371700312220078  0.9204647278403296  0.3445043520796163   T   T   T
  0.8377193824309875  0.4155111842864407  0.3467007509921277   T   T   T
  0.8350099700813929  0.9158825938723546  0.3445392349265159   T   T   T
  0.0534049870019544  0.0267049930020065  0.1425799429995678   F   F   F
  0.0534049869955027  0.5267047880002522  0.1425799429995678   F   F   F
  0.5534047480025350  0.0267049930020065  0.1425799429995678   F   F   F
  0.5534047479960833  0.5267047880002522  0.1425799429995678   F   F   F
  0.1899066306421401  0.0922962346022565  0.2813678125855180   T   T   T
  0.1889656649363025  0.5913920049999323  0.2802818596469906   T   T   T
  0.6895795662236772  0.0949355762451007  0.2818425969083367   T   T   T
  0.6854768326470592  0.5918074770466667  0.2833839522889282   T   T   T
  0.4166298809971991  0.4583148960031167  0.0057499979994802   F   F   F
  0.4166298809979310  0.9583147760063895  0.0057499979994802   F   F   F
  0.9166297909992238  0.4583148960031167  0.0057499979994802   F   F   F
  0.9166297909999557  0.9583147760063895  0.0057499979994802   F   F   F
  0.2692148690028304  0.3846048710056635  0.1083699689980548   F   F   F
  0.2692148690025320  0.8846047519972018  0.1083699689980548   F   F   F
  0.7692147490024652  0.3846048710056635  0.1083699689980548   F   F   F
  0.7692147490021739  0.8846047519972018  0.1083699689980548   F   F   F
  0.4114889102390887  0.4512901785273095  0.2523714661783316   T   T   T
  0.4138864250996752  0.9566117508749465  0.2486525465523727   T   T   T
  0.9167380324444815  0.4601311860566937  0.2502478020691825   T   T   F
  0.9123384508441644  0.9491559598396201  0.2487162921380746   T   T   T
  0.6324300000018965  0.8162100000021084  0.9715400000002106   F   F   F
  0.6324299999956011  0.3162099999950527  0.9715400000002106   F   F   F
  0.1324300000018965  0.8162100000021084  0.9715400000002106   F   F   F
  0.1324299999956011  0.3162099999950527  0.9715400000002106   F   F   F
  0.3593318452742961  0.6112192839667251  0.4430040010744982   T   T   T
  0.5705883034251114  0.5394247361170550  0.3989597841243551   T   T   T
  0.1204984004147191  0.5373863661904230  0.3920439969548344   T   T   T
  0.2231939825530248  0.4137750915916478  0.4074015863795349   T   T   T
  0.5275960520653971  0.6533866205041100  0.4486747193529176   T   T   T
 
  0.00000000E+00  0.00000000E+00  0.00000000E+00
  0.00000000E+00  0.00000000E+00  0.00000000E+00
  0.00000000E+00  0.00000000E+00  0.00000000E+00
  0.00000000E+00  0.00000000E+00  0.00000000E+00
  0.00000000E+00  0.00000000E+00  0.00000000E+00
  0.00000000E+00  0.00000000E+00  0.00000000E+00
  0.00000000E+00  0.00000000E+00  0.00000000E+00
  0.00000000E+00  0.00000000E+00  0.00000000E+00
  0.00000000E+00  0.00000000E+00  0.00000000E+00
  0.00000000E+00  0.00000000E+00  0.00000000E+00
  0.00000000E+00  0.00000000E+00  0.00000000E+00
  0.00000000E+00  0.00000000E+00  0.00000000E+00
  0.00000000E+00  0.00000000E+00  0.00000000E+00
  0.00000000E+00  0.00000000E+00  0.00000000E+00
  0.00000000E+00  0.00000000E+00  0.00000000E+00
  0.00000000E+00  0.00000000E+00  0.00000000E+00
  0.00000000E+00  0.00000000E+00  0.00000000E+00
  0.00000000E+00  0.00000000E+00  0.00000000E+00
  0.00000000E+00  0.00000000E+00  0.00000000E+00
  0.00000000E+00  0.00000000E+00  0.00000000E+00
  0.00000000E+00  0.00000000E+00  0.00000000E+00
  0.00000000E+00  0.00000000E+00  0.00000000E+00
  0.00000000E+00  0.00000000E+00  0.00000000E+00
  0.00000000E+00  0.00000000E+00  0.00000000E+00
  0.00000000E+00  0.00000000E+00  0.00000000E+00
  0.00000000E+00  0.00000000E+00  0.00000000E+00
  0.00000000E+00  0.00000000E+00  0.00000000E+00
  0.00000000E+00  0.00000000E+00  0.00000000E+00
  0.00000000E+00  0.00000000E+00  0.00000000E+00
  0.00000000E+00  0.00000000E+00  0.00000000E+00
  0.00000000E+00  0.00000000E+00  0.00000000E+00
  0.00000000E+00  0.00000000E+00  0.00000000E+00
  0.00000000E+00  0.00000000E+00  0.00000000E+00
  0.00000000E+00  0.00000000E+00  0.00000000E+00
  0.00000000E+00  0.00000000E+00  0.00000000E+00
  0.00000000E+00  0.00000000E+00  0.00000000E+00
  0.00000000E+00  0.00000000E+00  0.00000000E+00
  0.00000000E+00  0.00000000E+00  0.00000000E+00
  0.00000000E+00  0.00000000E+00  0.00000000E+00
  0.00000000E+00  0.00000000E+00  0.00000000E+00
  0.00000000E+00  0.00000000E+00  0.00000000E+00
  0.00000000E+00  0.00000000E+00  0.00000000E+00
  0.00000000E+00  0.00000000E+00  0.00000000E+00
  0.00000000E+00  0.00000000E+00  0.00000000E+00
  0.00000000E+00  0.00000000E+00  0.00000000E+00
  0.00000000E+00  0.00000000E+00  0.00000000E+00
  0.00000000E+00  0.00000000E+00  0.00000000E+00
  0.00000000E+00  0.00000000E+00  0.00000000E+00
  0.00000000E+00  0.00000000E+00  0.00000000E+00
  0.00000000E+00  0.00000000E+00  0.00000000E+00
  0.00000000E+00  0.00000000E+00  0.00000000E+00
  0.00000000E+00  0.00000000E+00  0.00000000E+00
  0.00000000E+00  0.00000000E+00  0.00000000E+00
  0.00000000E+00  0.00000000E+00  0.00000000E+00
  0.00000000E+00  0.00000000E+00  0.00000000E+00
  0.00000000E+00  0.00000000E+00  0.00000000E+00
  0.00000000E+00  0.00000000E+00  0.00000000E+00
  0.00000000E+00  0.00000000E+00  0.00000000E+00
  0.00000000E+00  0.00000000E+00  0.00000000E+00
  0.00000000E+00  0.00000000E+00  0.00000000E+00
  0.00000000E+00  0.00000000E+00  0.00000000E+00
  0.00000000E+00  0.00000000E+00  0.00000000E+00
  0.00000000E+00  0.00000000E+00  0.00000000E+00
  0.00000000E+00  0.00000000E+00  0.00000000E+00
  0.00000000E+00  0.00000000E+00  0.00000000E+00
  0.00000000E+00  0.00000000E+00  0.00000000E+00
  0.00000000E+00  0.00000000E+00  0.00000000E+00
  0.00000000E+00  0.00000000E+00  0.00000000E+00
  0.00000000E+00  0.00000000E+00  0.00000000E+00
  0.00000000E+00  0.00000000E+00  0.00000000E+00
  0.00000000E+00  0.00000000E+00  0.00000000E+00
  0.00000000E+00  0.00000000E+00  0.00000000E+00
  0.00000000E+00  0.00000000E+00  0.00000000E+00
  0.00000000E+00  0.00000000E+00  0.00000000E+00
  0.00000000E+00  0.00000000E+00  0.00000000E+00
  0.00000000E+00  0.00000000E+00  0.00000000E+00
  0.00000000E+00  0.00000000E+00  0.00000000E+00
