anatasa(101)2x2 Ti24O48                 
   1.00000000000000     
    10.8858003615999994    0.0000000000000000    0.0000000000000000
    -2.6195884084999999    7.0831099706999998    0.0000000000000000
     0.0000000000000000    0.0000000000000000   25.6399002074999984
   Ti   O    As   H 
    24    51     1     3
Selective dynamics
Direct
  0.4528848829978926  0.2264399379982365  0.0000000000000000   F   F   F
  0.4528848830006567  0.7264397739954163  0.0000000000000000   F   F   F
  0.9528847929999174  0.2264399379982365  0.0000000000000000   F   F   F
  0.9528847930026814  0.7264397739954163  0.0000000000000000   F   F   F
  0.0896649730030603  0.2948298750038489  0.1368299420008583   F   F   F
  0.0896649729944912  0.7948297259944468  0.1368299420008583   F   F   F
  0.5896647569968962  0.2948298750038489  0.1368299420008583   F   F   F
  0.5896647569975073  0.7948297259944468  0.1368299420008583   F   F   F
  0.2295839762070020  0.3636469807785533  0.2792682440426478   T   T   T
  0.2215937363883910  0.8617423036473647  0.2803586246018251   T   T   T
  0.7357167905656723  0.3666319411748558  0.2804040407669300   T   T   T
  0.7321043788276327  0.8643239263016622  0.2799021383532860   T   T   T
  0.2370799330039972  0.3685398700003546  0.0342099849999968   F   F   F
  0.2370799329979150  0.8685397510060184  0.0342099849999968   F   F   F
  0.7370797400002758  0.3685398700003546  0.0342099849999968   F   F   F
  0.7370797400033808  0.8685397510060184  0.0342099849999968   F   F   F
  0.3738598819958199  0.4369298820012730  0.1710399390016804   F   F   F
  0.3738598819965517  0.9369297620045458  0.1710399390016804   F   F   F
  0.8738597629967586  0.4369298820012730  0.1710399390016804   F   F   F
  0.8738597629974905  0.9369297620045458  0.1710399390016804   F   F   F
  0.0004612319070481  0.0037847440891575  0.3182376657058006   T   T   T
  0.0035447122994442  0.4979192136712868  0.3186923817249745   T   T   T
  0.5118992125476338  0.0054831658419781  0.3130023856515758   T   T   T
  0.5143766006596160  0.5000047368185557  0.3178676089095703   T   T   T
  0.2733348910015110  0.1366649419964219  0.0284599920005348   F   F   F
  0.2733348909993936  0.6366647480067797  0.0284599920005348   F   F   F
  0.7733347420000669  0.1366649419964219  0.0284599920005348   F   F   F
  0.7733347419979495  0.6366647480067797  0.0284599920005348   F   F   F
  0.4101148839977640  0.2050549390039293  0.1652899379990700   F   F   F
  0.4101148839992845  0.7050547599935797  0.1652899379990700   F   F   F
  0.9101147649987027  0.2050549390039293  0.1652899379990700   F   F   F
  0.9101147650002233  0.7050547599935797  0.1652899379990700   F   F   F
  0.0530168972264879  0.2760346945893704  0.3319935931389144   T   T   T
  0.0526910479481726  0.7765621302710563  0.3276604521320656   T   T   T
  0.5664453835994432  0.2708976014816944  0.3289029630934486   T   T   T
  0.5560340956556277  0.7844666240862550  0.3235794550245040   T   T   T
  0.0575299860020095  0.2787648739985400  0.0626699699997246   F   F   F
  0.0575299859968368  0.7787647250032563  0.0626699699997246   F   F   F
  0.5575297470025902  0.2787648739985400  0.0626699699997246   F   F   F
  0.5575297469974174  0.7787647250032563  0.0626699699997246   F   F   F
  0.1943099350030195  0.3471548859994584  0.1994999349998920   F   F   F
  0.1943099349978468  0.8471547370041748  0.1994999349998920   F   F   F
  0.6943097710003769  0.3471548859994584  0.1994999349998920   F   F   F
  0.6943097710043915  0.8471547370041748  0.1994999349998920   F   F   F
  0.3279737465832260  0.3925320782108138  0.3564476363308724   T   T   T
  0.3377250072110891  0.9231851795726933  0.3496059077316514   T   T   T
  0.8349463560254144  0.4120312880766430  0.3462104532716772   T   T   T
  0.8310400863292873  0.9208928113621235  0.3456640948471391   T   T   T
  0.0534049870019544  0.0267049930020065  0.1425799429995678   F   F   F
  0.0534049869955027  0.5267047880002522  0.1425799429995678   F   F   F
  0.5534047480025350  0.0267049930020065  0.1425799429995678   F   F   F
  0.5534047479960833  0.5267047880002522  0.1425799429995678   F   F   F
  0.1824547001932238  0.0854324202208618  0.2849072064074749   T   T   T
  0.1902364035261097  0.6006884366435771  0.2888400028298958   T   T   T
  0.6847982169601028  0.0916787539464962  0.2767317073828201   T   T   T
  0.6999762347682530  0.5978714601147567  0.2814316452279593   T   T   T
  0.4166298809971991  0.4583148960031167  0.0057499979994802   F   F   F
  0.4166298809979310  0.9583147760063895  0.0057499979994802   F   F   F
  0.9166297909992238  0.4583148960031167  0.0057499979994802   F   F   F
  0.9166297909999557  0.9583147760063895  0.0057499979994802   F   F   F
  0.2692148690028304  0.3846048710056635  0.1083699689980548   F   F   F
  0.2692148690025320  0.8846047519972018  0.1083699689980548   F   F   F
  0.7692147490024652  0.3846048710056635  0.1083699689980548   F   F   F
  0.7692147490021739  0.8846047519972018  0.1083699689980548   F   F   F
  0.4174622079340388  0.4591431392009532  0.2485373707385352   T   T   T
  0.4062359779897975  0.9612661748506620  0.2512300496735967   T   T   T
  0.9176856617402633  0.4536633249477938  0.2502153661745833   T   T   T
  0.9145288632754327  0.9613023503401289  0.2500454554175383   T   T   T
  0.6324300000018965  0.8162100000021084  0.9715400000002106   F   F   F
  0.6324299999956011  0.3162099999950527  0.9715400000002106   F   F   F
  0.1324300000018965  0.8162100000021084  0.9715400000002106   F   F   F
  0.1324299999956011  0.3162099999950527  0.9715400000002106   F   F   F
  0.3033979912445087  0.6695470059887724  0.4298620523132534   T   T   T
  0.5283064201063968  0.5473439422177935  0.4180986872102223   T   T   T
  0.2986086603804423  0.3010979780091209  0.4626018543820314   T   T   T
  0.3524648471629875  0.4897148525017933  0.4173479464111449   T   T   T
  0.3180856425913377  0.8263927907477367  0.3780180915060055   T   T   T
  0.5510493530640359  0.4490350819500209  0.4364335491436812   T   T   T
  0.2438868694691156  0.3324768146191206  0.4887778905623898   T   T   T
 
  0.00000000E+00  0.00000000E+00  0.00000000E+00
  0.00000000E+00  0.00000000E+00  0.00000000E+00
  0.00000000E+00  0.00000000E+00  0.00000000E+00
  0.00000000E+00  0.00000000E+00  0.00000000E+00
  0.00000000E+00  0.00000000E+00  0.00000000E+00
  0.00000000E+00  0.00000000E+00  0.00000000E+00
  0.00000000E+00  0.00000000E+00  0.00000000E+00
  0.00000000E+00  0.00000000E+00  0.00000000E+00
  0.00000000E+00  0.00000000E+00  0.00000000E+00
  0.00000000E+00  0.00000000E+00  0.00000000E+00
  0.00000000E+00  0.00000000E+00  0.00000000E+00
  0.00000000E+00  0.00000000E+00  0.00000000E+00
  0.00000000E+00  0.00000000E+00  0.00000000E+00
  0.00000000E+00  0.00000000E+00  0.00000000E+00
  0.00000000E+00  0.00000000E+00  0.00000000E+00
  0.00000000E+00  0.00000000E+00  0.00000000E+00
  0.00000000E+00  0.00000000E+00  0.00000000E+00
  0.00000000E+00  0.00000000E+00  0.00000000E+00
  0.00000000E+00  0.00000000E+00  0.00000000E+00
  0.00000000E+00  0.00000000E+00  0.00000000E+00
  0.00000000E+00  0.00000000E+00  0.00000000E+00
  0.00000000E+00  0.00000000E+00  0.00000000E+00
  0.00000000E+00  0.00000000E+00  0.00000000E+00
  0.00000000E+00  0.00000000E+00  0.00000000E+00
  0.00000000E+00  0.00000000E+00  0.00000000E+00
  0.00000000E+00  0.00000000E+00  0.00000000E+00
  0.00000000E+00  0.00000000E+00  0.00000000E+00
  0.00000000E+00  0.00000000E+00  0.00000000E+00
  0.00000000E+00  0.00000000E+00  0.00000000E+00
  0.00000000E+00  0.00000000E+00  0.00000000E+00
  0.00000000E+00  0.00000000E+00  0.00000000E+00
  0.00000000E+00  0.00000000E+00  0.00000000E+00
  0.00000000E+00  0.00000000E+00  0.00000000E+00
  0.00000000E+00  0.00000000E+00  0.00000000E+00
  0.00000000E+00  0.00000000E+00  0.00000000E+00
  0.00000000E+00  0.00000000E+00  0.00000000E+00
  0.00000000E+00  0.00000000E+00  0.00000000E+00
  0.00000000E+00  0.00000000E+00  0.00000000E+00
  0.00000000E+00  0.00000000E+00  0.00000000E+00
  0.00000000E+00  0.00000000E+00  0.00000000E+00
  0.00000000E+00  0.00000000E+00  0.00000000E+00
  0.00000000E+00  0.00000000E+00  0.00000000E+00
  0.00000000E+00  0.00000000E+00  0.00000000E+00
  0.00000000E+00  0.00000000E+00  0.00000000E+00
  0.00000000E+00  0.00000000E+00  0.00000000E+00
  0.00000000E+00  0.00000000E+00  0.00000000E+00
  0.00000000E+00  0.00000000E+00  0.00000000E+00
  0.00000000E+00  0.00000000E+00  0.00000000E+00
  0.00000000E+00  0.00000000E+00  0.00000000E+00
  0.00000000E+00  0.00000000E+00  0.00000000E+00
  0.00000000E+00  0.00000000E+00  0.00000000E+00
  0.00000000E+00  0.00000000E+00  0.00000000E+00
  0.00000000E+00  0.00000000E+00  0.00000000E+00
  0.00000000E+00  0.00000000E+00  0.00000000E+00
  0.00000000E+00  0.00000000E+00  0.00000000E+00
  0.00000000E+00  0.00000000E+00  0.00000000E+00
  0.00000000E+00  0.00000000E+00  0.00000000E+00
  0.00000000E+00  0.00000000E+00  0.00000000E+00
  0.00000000E+00  0.00000000E+00  0.00000000E+00
  0.00000000E+00  0.00000000E+00  0.00000000E+00
  0.00000000E+00  0.00000000E+00  0.00000000E+00
  0.00000000E+00  0.00000000E+00  0.00000000E+00
  0.00000000E+00  0.00000000E+00  0.00000000E+00
  0.00000000E+00  0.00000000E+00  0.00000000E+00
  0.00000000E+00  0.00000000E+00  0.00000000E+00
  0.00000000E+00  0.00000000E+00  0.00000000E+00
  0.00000000E+00  0.00000000E+00  0.00000000E+00
  0.00000000E+00  0.00000000E+00  0.00000000E+00
  0.00000000E+00  0.00000000E+00  0.00000000E+00
  0.00000000E+00  0.00000000E+00  0.00000000E+00
  0.00000000E+00  0.00000000E+00  0.00000000E+00
  0.00000000E+00  0.00000000E+00  0.00000000E+00
  0.00000000E+00  0.00000000E+00  0.00000000E+00
  0.00000000E+00  0.00000000E+00  0.00000000E+00
  0.00000000E+00  0.00000000E+00  0.00000000E+00
  0.00000000E+00  0.00000000E+00  0.00000000E+00
  0.00000000E+00  0.00000000E+00  0.00000000E+00
  0.00000000E+00  0.00000000E+00  0.00000000E+00
  0.00000000E+00  0.00000000E+00  0.00000000E+00
